218 300 15 41 22 44 16 35 50 18 41 37 12 24 50 37 47 36 23 20 50 48 38 25 30 20 31 13 14 39 20 35 17 26 25 31 21 33 15 23 41 46 50 43 22 10 31 18 37 44 29 38 42 18 12 23 28 35 26 32 25 39 18 32 16 33 12 27 15 17 42 46 15 44 40 29 44 20 39 32 16 17 19 50 27 21 24 47 48 41 28 22 29 38 44 35 20 48 13 27 17 48 24 24 41 15 43 36 28 31 18 34 41 27 35 17 41 49 16 38 41 36 10 21 24 46 48 34 44 11 13 12 10 27 26 41 35 18 28 12 41 36 38 31 15 22 41 48 22 47 37 13 32 37 26 48 35 24 32 30 27 37 32 27 15 50 19 40 19 37 42 50 25 29 33 30 43 25 29 15 23 15 20 47 45 36 45 29 50 28 10 26 14 34 45 19 33 13 11 42 41 43 43 17 24 27 37 16 42 17 23 14 22 33 11 16 21 46 37 20 